10
0 32 30 40 37 37 5 34 23 18 
32 0 46 14 37 7 37 14 14 20 
30 46 0 43 18 52 30 37 32 27 
40 14 43 0 29 18 44 7 17 23 
37 37 18 29 0 43 39 24 25 24 
37 7 52 18 43 0 42 20 20 26 
5 37 30 44 39 42 0 38 27 21 
34 14 37 7 24 20 38 0 11 17 
23 14 32 17 25 20 27 11 0 6 
18 20 27 23 24 26 21 17 6 0 
